&GLOBAL
  PROJECT Si_bulk8
  RUN_TYPE ENERGY
  PRINT_LEVEL LOW
&END GLOBAL
&FORCE_EVAL
  METHOD Quickstep
  &SUBSYS
    &KIND Si
      ELEMENT	Si
      BASIS_SET DZVP-GTH-PBE
      POTENTIAL GTH-PBE-q4
    &END KIND
    &CELL
      A     5.430697500    0.000000000    0.000000000
      B     0.000000000    5.430697500    0.000000000
      C     0.000000000    0.000000000    5.430697500
      PERIODIC XYZ
    &END CELL
    &COORD
      Si    0.000000000    0.000000000    0.000000000
      Si    0.000000000    2.715348700    2.715348700
      Si    2.715348700    2.715348700    0.000000000
      Si    2.715348700    0.000000000    2.715348700
      Si    4.073023100    1.357674400    4.073023100
      Si    1.357674400    1.357674400    1.357674400
      Si    1.357674400    4.073023100    4.073023100
      Si    4.073023100    4.073023100    1.357674400
    &END COORD
  &END SUBSYS
  &DFT
    BASIS_SET_FILE_NAME BASIS_SET
    POTENTIAL_FILE_NAME GTH_POTENTIALS
    &KPOINTS
      SCHEME  NONE 
      KPOINT  0.000000000 0.000000000 0.000000000 1
      # SCHEME MONKHORST-PACK 8 8 8
    &END KPOINTS
    &QS
      METHOD GPW
      EPS_DEFAULT 1.0E-10
    &END QS
    &MGRID
      NGRIDS 4
      CUTOFF 300
      REL_CUTOFF 60
    &END MGRID
    &XC
      &XC_FUNCTIONAL PBE
      &END XC_FUNCTIONAL
    &END XC
    &SCF
      # SCF_GUESS ATOMIC
      SCF_GUESS RESTART
      EPS_SCF 1.0E-7
      MAX_SCF 300
      ADDED_MOS 10
      &DIAGONALIZATION ON
        ALGORITHM STANDARD
      &END DIAGONALIZATION
      &MIXING T
        METHOD BROYDEN_MIXING
        ALPHA 0.4
        NBROYDEN 8
      &END MIXING
      # &SMEAR ON
        # METHOD FERMI_DIRAC
        # ELECTRONIC_TEMPERATURE [K] 300
      # &END SMEAR
    &END SCF
    &PRINT
      # &KPOINTS
        # &EACH
          # JUST_ENERGY 1
        # &END EACH
      # &END KPOINTS
      &AO_MATRICES
        # OVERLAP T
        KOHN_SHAM_MATRIX T
      &END AO_MATRICES
    &END PRINT
  &END DFT
&END FORCE_EVAL
